c turning on binary mode checking
c parsing input formula with 259840 variables and 1039929 clauses
c finished parsing, read 3082412 bytes from proof file
c detected empty clause; start verification via backward checking
c 5631 of 1039929 clauses in core                            
c 1758 of 119269 lemmas in core using 38010 resolution steps
c 0 RAT lemmas in core; 248 redundant literals in core lemmas
s VERIFIED
c verification time: 1.378 seconds
